c " random instance " 
p edges 200 2212
e 1 5
e 1 9
e 1 16
e 1 18
e 1 20
e 1 21
e 1 25
e 1 26
e 1 33
e 1 81
e 1 84
e 1 105
e 1 107
e 1 130
e 1 150
e 1 157
e 1 164
e 1 166
e 1 167
e 1 180
e 1 195
e 1 200
e 2 8
e 2 12
e 2 24
e 2 27
e 2 32
e 2 34
e 2 36
e 2 37
e 2 40
e 2 43
e 2 73
e 2 78
e 2 91
e 2 99
e 2 109
e 2 118
e 2 119
e 2 120
e 2 128
e 2 131
e 2 137
e 2 142
e 2 149
e 2 156
e 2 166
e 2 169
e 2 170
e 2 173
e 2 177
e 2 183
e 2 186
e 3 7
e 3 8
e 3 11
e 3 12
e 3 20
e 3 24
e 3 34
e 3 41
e 3 51
e 3 68
e 3 70
e 3 90
e 3 109
e 3 122
e 3 138
e 3 139
e 3 149
e 3 152
e 3 174
e 3 186
e 3 194
e 3 198
e 4 18
e 4 25
e 4 42
e 4 43
e 4 58
e 4 71
e 4 75
e 4 84
e 4 93
e 4 113
e 4 137
e 4 141
e 4 145
e 4 150
e 4 151
e 4 157
e 4 171
e 4 186
e 4 192
e 5 21
e 5 31
e 5 33
e 5 39
e 5 43
e 5 52
e 5 77
e 5 90
e 5 94
e 5 106
e 5 107
e 5 110
e 5 127
e 5 151
e 5 154
e 5 162
e 5 168
e 5 183
e 5 190
e 5 194
e 5 199
e 6 16
e 6 25
e 6 48
e 6 57
e 6 70
e 6 84
e 6 96
e 6 101
e 6 129
e 6 138
e 6 151
e 6 154
e 6 182
e 6 195
e 7 10
e 7 18
e 7 26
e 7 36
e 7 55
e 7 62
e 7 68
e 7 79
e 7 91
e 7 94
e 7 104
e 7 108
e 7 112
e 7 116
e 7 120
e 7 123
e 7 130
e 7 169
e 7 180
e 7 187
e 7 194
e 8 22
e 8 23
e 8 26
e 8 28
e 8 47
e 8 68
e 8 78
e 8 81
e 8 83
e 8 87
e 8 116
e 8 126
e 8 132
e 8 169
e 8 170
e 8 174
e 8 186
e 9 15
e 9 20
e 9 22
e 9 25
e 9 26
e 9 27
e 9 35
e 9 51
e 9 60
e 9 70
e 9 71
e 9 78
e 9 82
e 9 90
e 9 99
e 9 105
e 9 109
e 9 110
e 9 132
e 9 136
e 9 153
e 9 160
e 9 168
e 9 176
e 9 179
e 9 186
e 9 187
e 9 189
e 9 191
e 10 29
e 10 37
e 10 40
e 10 47
e 10 62
e 10 65
e 10 68
e 10 75
e 10 78
e 10 80
e 10 106
e 10 107
e 10 109
e 10 117
e 10 131
e 10 136
e 10 141
e 10 148
e 10 167
e 10 180
e 10 193
e 10 197
e 11 36
e 11 57
e 11 64
e 11 69
e 11 75
e 11 87
e 11 89
e 11 92
e 11 94
e 11 102
e 11 116
e 11 118
e 11 127
e 11 128
e 11 144
e 11 154
e 11 159
e 11 180
e 11 190
e 12 19
e 12 43
e 12 44
e 12 46
e 12 48
e 12 49
e 12 50
e 12 56
e 12 93
e 12 120
e 12 133
e 12 137
e 12 138
e 12 147
e 12 157
e 12 165
e 12 173
e 12 189
e 13 22
e 13 26
e 13 46
e 13 64
e 13 67
e 13 72
e 13 75
e 13 103
e 13 106
e 13 115
e 13 173
e 13 186
e 13 191
e 14 17
e 14 29
e 14 32
e 14 38
e 14 44
e 14 45
e 14 65
e 14 71
e 14 83
e 14 96
e 14 101
e 14 111
e 14 116
e 14 121
e 14 132
e 14 134
e 14 145
e 14 153
e 14 154
e 14 157
e 14 170
e 14 183
e 14 185
e 14 187
e 14 190
e 14 195
e 14 198
e 15 31
e 15 46
e 15 47
e 15 51
e 15 59
e 15 76
e 15 82
e 15 90
e 15 96
e 15 116
e 15 119
e 15 120
e 15 125
e 15 136
e 15 156
e 15 168
e 15 171
e 15 173
e 15 196
e 16 25
e 16 33
e 16 44
e 16 48
e 16 53
e 16 54
e 16 56
e 16 79
e 16 87
e 16 93
e 16 101
e 16 103
e 16 104
e 16 123
e 16 128
e 16 146
e 16 151
e 16 163
e 16 172
e 16 173
e 16 179
e 16 195
e 17 18
e 17 31
e 17 35
e 17 44
e 17 47
e 17 49
e 17 64
e 17 94
e 17 95
e 17 102
e 17 103
e 17 110
e 17 113
e 17 126
e 17 131
e 17 144
e 17 153
e 17 166
e 17 169
e 18 19
e 18 42
e 18 45
e 18 49
e 18 53
e 18 57
e 18 86
e 18 90
e 18 98
e 18 101
e 18 102
e 18 109
e 18 112
e 18 123
e 18 156
e 18 159
e 18 166
e 18 167
e 18 178
e 18 180
e 18 184
e 18 185
e 18 190
e 19 21
e 19 26
e 19 36
e 19 43
e 19 57
e 19 72
e 19 73
e 19 75
e 19 83
e 19 86
e 19 90
e 19 105
e 19 107
e 19 119
e 19 127
e 19 131
e 19 140
e 19 146
e 19 162
e 19 165
e 19 194
e 20 21
e 20 25
e 20 31
e 20 37
e 20 40
e 20 45
e 20 59
e 20 85
e 20 93
e 20 122
e 20 127
e 20 130
e 20 142
e 20 153
e 20 156
e 20 166
e 20 176
e 20 181
e 20 188
e 20 191
e 20 192
e 21 40
e 21 48
e 21 51
e 21 52
e 21 53
e 21 57
e 21 59
e 21 65
e 21 94
e 21 97
e 21 98
e 21 99
e 21 112
e 21 116
e 21 155
e 21 159
e 21 173
e 22 29
e 22 44
e 22 48
e 22 50
e 22 51
e 22 58
e 22 62
e 22 66
e 22 67
e 22 90
e 22 91
e 22 100
e 22 109
e 22 113
e 22 114
e 22 122
e 22 124
e 22 142
e 22 162
e 22 172
e 22 184
e 22 187
e 22 191
e 23 28
e 23 31
e 23 41
e 23 42
e 23 45
e 23 46
e 23 57
e 23 58
e 23 59
e 23 64
e 23 75
e 23 76
e 23 79
e 23 94
e 23 97
e 23 99
e 23 101
e 23 112
e 23 130
e 23 135
e 23 159
e 23 179
e 23 195
e 24 39
e 24 50
e 24 61
e 24 73
e 24 76
e 24 88
e 24 92
e 24 102
e 24 103
e 24 105
e 24 133
e 24 152
e 24 167
e 24 190
e 24 193
e 24 194
e 25 50
e 25 54
e 25 60
e 25 67
e 25 75
e 25 79
e 25 82
e 25 106
e 25 113
e 25 134
e 25 135
e 25 136
e 25 137
e 25 144
e 25 156
e 25 158
e 25 162
e 25 180
e 25 184
e 25 190
e 26 28
e 26 44
e 26 54
e 26 57
e 26 58
e 26 82
e 26 116
e 26 117
e 26 149
e 26 159
e 26 165
e 26 194
e 27 44
e 27 48
e 27 52
e 27 63
e 27 66
e 27 89
e 27 105
e 27 125
e 27 142
e 27 143
e 27 150
e 27 163
e 27 164
e 27 167
e 27 172
e 27 179
e 28 31
e 28 48
e 28 49
e 28 52
e 28 56
e 28 69
e 28 83
e 28 97
e 28 112
e 28 124
e 28 125
e 28 137
e 28 147
e 28 148
e 28 149
e 28 166
e 28 180
e 28 189
e 28 190
e 28 192
e 28 194
e 29 32
e 29 58
e 29 62
e 29 65
e 29 69
e 29 74
e 29 77
e 29 97
e 29 107
e 29 108
e 29 112
e 29 113
e 29 114
e 29 122
e 29 130
e 29 137
e 29 140
e 29 149
e 29 154
e 29 168
e 29 174
e 29 175
e 29 180
e 29 188
e 29 191
e 29 198
e 29 199
e 30 35
e 30 44
e 30 63
e 30 66
e 30 74
e 30 83
e 30 109
e 30 113
e 30 114
e 30 124
e 30 133
e 30 149
e 30 151
e 30 192
e 31 32
e 31 33
e 31 34
e 31 35
e 31 36
e 31 42
e 31 46
e 31 49
e 31 55
e 31 56
e 31 85
e 31 115
e 31 120
e 31 127
e 31 128
e 31 134
e 31 150
e 31 152
e 31 155
e 31 158
e 31 169
e 31 171
e 31 188
e 31 191
e 31 197
e 31 199
e 32 40
e 32 52
e 32 55
e 32 60
e 32 64
e 32 75
e 32 78
e 32 88
e 32 90
e 32 97
e 32 109
e 32 113
e 32 119
e 32 120
e 32 127
e 32 135
e 32 138
e 32 188
e 33 36
e 33 52
e 33 54
e 33 63
e 33 65
e 33 69
e 33 80
e 33 86
e 33 94
e 33 102
e 33 112
e 33 113
e 33 114
e 33 116
e 33 121
e 33 126
e 33 128
e 33 140
e 33 148
e 33 149
e 33 159
e 33 160
e 33 169
e 33 175
e 33 178
e 33 184
e 33 187
e 33 188
e 33 189
e 33 194
e 33 200
e 34 35
e 34 37
e 34 39
e 34 42
e 34 56
e 34 64
e 34 77
e 34 92
e 34 93
e 34 95
e 34 108
e 34 129
e 34 132
e 34 133
e 34 160
e 34 168
e 35 41
e 35 44
e 35 58
e 35 61
e 35 73
e 35 79
e 35 85
e 35 93
e 35 94
e 35 100
e 35 115
e 35 144
e 35 149
e 35 154
e 35 169
e 35 170
e 35 180
e 35 181
e 35 200
e 36 37
e 36 48
e 36 58
e 36 63
e 36 66
e 36 68
e 36 71
e 36 82
e 36 89
e 36 100
e 36 101
e 36 105
e 36 120
e 36 125
e 36 146
e 36 147
e 36 172
e 36 180
e 36 182
e 36 196
e 37 51
e 37 54
e 37 61
e 37 73
e 37 76
e 37 83
e 37 91
e 37 94
e 37 96
e 37 109
e 37 127
e 37 137
e 37 151
e 37 157
e 37 173
e 38 47
e 38 91
e 38 94
e 38 101
e 38 106
e 38 110
e 38 111
e 38 112
e 38 117
e 38 122
e 38 126
e 38 139
e 38 151
e 38 170
e 38 175
e 38 182
e 38 197
e 39 66
e 39 68
e 39 71
e 39 76
e 39 86
e 39 117
e 39 143
e 39 147
e 39 151
e 39 153
e 39 156
e 39 170
e 39 172
e 39 178
e 39 179
e 39 185
e 39 197
e 40 42
e 40 45
e 40 57
e 40 62
e 40 77
e 40 91
e 40 119
e 40 125
e 40 126
e 40 127
e 40 140
e 40 159
e 40 179
e 40 191
e 40 195
e 40 196
e 41 50
e 41 72
e 41 77
e 41 82
e 41 97
e 41 106
e 41 112
e 41 113
e 41 122
e 41 136
e 41 151
e 41 154
e 41 158
e 41 163
e 41 167
e 41 176
e 41 191
e 41 195
e 41 198
e 42 57
e 42 67
e 42 72
e 42 75
e 42 97
e 42 102
e 42 106
e 42 110
e 42 113
e 42 115
e 42 129
e 42 170
e 42 182
e 42 189
e 43 48
e 43 57
e 43 61
e 43 73
e 43 81
e 43 82
e 43 111
e 43 123
e 43 125
e 43 126
e 43 131
e 43 146
e 43 149
e 43 155
e 43 161
e 43 163
e 43 179
e 43 180
e 43 185
e 43 196
e 43 199
e 44 52
e 44 61
e 44 65
e 44 75
e 44 76
e 44 86
e 44 88
e 44 96
e 44 104
e 44 111
e 44 114
e 44 119
e 44 122
e 44 130
e 44 163
e 44 165
e 44 190
e 44 192
e 44 196
e 44 197
e 45 49
e 45 82
e 45 101
e 45 115
e 45 121
e 45 129
e 45 165
e 45 166
e 45 169
e 45 170
e 45 176
e 45 192
e 45 198
e 46 56
e 46 96
e 46 104
e 46 108
e 46 150
e 46 158
e 46 159
e 46 176
e 46 192
e 46 195
e 47 56
e 47 62
e 47 65
e 47 72
e 47 126
e 47 134
e 47 137
e 47 144
e 47 153
e 47 161
e 47 164
e 48 52
e 48 61
e 48 66
e 48 68
e 48 81
e 48 84
e 48 91
e 48 92
e 48 93
e 48 96
e 48 101
e 48 109
e 48 117
e 48 118
e 48 140
e 48 145
e 48 147
e 48 161
e 48 168
e 48 170
e 48 171
e 48 174
e 48 180
e 48 186
e 48 188
e 48 191
e 49 60
e 49 61
e 49 73
e 49 91
e 49 100
e 49 101
e 49 112
e 49 131
e 49 141
e 49 142
e 49 147
e 49 152
e 49 154
e 49 172
e 49 188
e 49 191
e 49 192
e 49 196
e 50 64
e 50 70
e 50 72
e 50 73
e 50 75
e 50 78
e 50 82
e 50 86
e 50 99
e 50 122
e 50 139
e 50 151
e 50 162
e 50 186
e 50 191
e 51 60
e 51 74
e 51 78
e 51 87
e 51 89
e 51 103
e 51 114
e 51 127
e 51 131
e 51 140
e 51 141
e 51 143
e 51 173
e 51 176
e 51 182
e 51 197
e 51 198
e 52 79
e 52 95
e 52 100
e 52 126
e 52 137
e 52 138
e 52 141
e 52 157
e 52 159
e 52 200
e 53 64
e 53 78
e 53 91
e 53 95
e 53 97
e 53 106
e 53 128
e 53 137
e 53 150
e 53 170
e 53 179
e 54 60
e 54 61
e 54 84
e 54 96
e 54 105
e 54 118
e 54 131
e 54 145
e 54 150
e 54 152
e 54 154
e 54 155
e 54 162
e 54 167
e 54 177
e 54 199
e 55 60
e 55 62
e 55 70
e 55 78
e 55 83
e 55 90
e 55 93
e 55 96
e 55 100
e 55 111
e 55 116
e 55 118
e 55 123
e 55 128
e 55 134
e 55 135
e 55 137
e 55 143
e 55 157
e 55 167
e 55 170
e 55 172
e 55 175
e 55 181
e 55 191
e 55 193
e 56 57
e 56 67
e 56 69
e 56 79
e 56 80
e 56 85
e 56 91
e 56 112
e 56 118
e 56 122
e 56 136
e 56 147
e 56 150
e 56 153
e 56 161
e 56 163
e 56 167
e 56 168
e 56 180
e 56 186
e 56 190
e 56 196
e 57 69
e 57 76
e 57 82
e 57 84
e 57 91
e 57 92
e 57 98
e 57 105
e 57 109
e 57 112
e 57 116
e 57 117
e 57 123
e 57 125
e 57 143
e 57 145
e 57 155
e 57 176
e 57 182
e 57 184
e 57 198
e 58 60
e 58 63
e 58 67
e 58 78
e 58 90
e 58 93
e 58 102
e 58 106
e 58 113
e 58 129
e 58 131
e 58 132
e 58 174
e 58 178
e 58 195
e 58 200
e 59 60
e 59 65
e 59 68
e 59 73
e 59 99
e 59 102
e 59 112
e 59 123
e 59 149
e 59 150
e 59 155
e 59 166
e 59 171
e 59 181
e 60 62
e 60 63
e 60 73
e 60 78
e 60 91
e 60 93
e 60 101
e 60 102
e 60 114
e 60 127
e 60 131
e 60 142
e 60 172
e 60 186
e 60 194
e 60 196
e 60 200
e 61 71
e 61 73
e 61 97
e 61 101
e 61 130
e 61 135
e 61 145
e 61 161
e 61 162
e 61 176
e 61 182
e 61 185
e 61 190
e 62 65
e 62 66
e 62 76
e 62 84
e 62 104
e 62 108
e 62 111
e 62 116
e 62 124
e 62 128
e 62 149
e 62 151
e 62 160
e 62 162
e 62 167
e 62 169
e 62 170
e 62 172
e 62 182
e 62 186
e 62 191
e 63 79
e 63 86
e 63 88
e 63 90
e 63 96
e 63 121
e 63 160
e 63 169
e 63 177
e 63 179
e 63 181
e 64 69
e 64 75
e 64 76
e 64 84
e 64 87
e 64 93
e 64 102
e 64 120
e 64 123
e 64 132
e 64 137
e 64 139
e 64 141
e 64 144
e 64 149
e 64 154
e 64 158
e 64 172
e 64 173
e 64 177
e 64 189
e 64 191
e 64 197
e 65 67
e 65 71
e 65 72
e 65 99
e 65 113
e 65 115
e 65 120
e 65 124
e 65 127
e 65 128
e 65 145
e 65 153
e 65 162
e 65 195
e 66 89
e 66 93
e 66 100
e 66 132
e 66 142
e 66 166
e 66 175
e 66 183
e 66 186
e 66 190
e 66 191
e 66 194
e 67 78
e 67 80
e 67 81
e 67 83
e 67 85
e 67 86
e 67 95
e 67 113
e 67 118
e 67 125
e 67 128
e 67 137
e 67 160
e 67 165
e 67 173
e 67 175
e 67 192
e 67 197
e 67 199
e 68 69
e 68 71
e 68 87
e 68 95
e 68 116
e 68 143
e 68 153
e 68 156
e 68 157
e 68 163
e 68 170
e 68 184
e 68 193
e 69 74
e 69 78
e 69 79
e 69 85
e 69 86
e 69 89
e 69 107
e 69 114
e 69 126
e 69 133
e 69 137
e 69 152
e 69 153
e 69 169
e 69 179
e 69 188
e 70 75
e 70 77
e 70 80
e 70 90
e 70 102
e 70 103
e 70 140
e 70 162
e 70 186
e 70 188
e 70 189
e 70 194
e 70 197
e 71 79
e 71 88
e 71 94
e 71 95
e 71 110
e 71 116
e 71 122
e 71 126
e 71 132
e 71 147
e 71 151
e 71 152
e 71 156
e 71 160
e 71 175
e 71 177
e 71 179
e 71 183
e 71 190
e 71 199
e 72 98
e 72 109
e 72 131
e 72 136
e 72 143
e 72 155
e 72 158
e 72 159
e 72 161
e 72 181
e 72 200
e 73 74
e 73 76
e 73 83
e 73 89
e 73 97
e 73 112
e 73 115
e 73 116
e 73 132
e 73 134
e 73 142
e 73 171
e 73 172
e 73 178
e 73 188
e 73 190
e 73 195
e 74 81
e 74 88
e 74 89
e 74 97
e 74 98
e 74 102
e 74 114
e 74 117
e 74 131
e 74 154
e 74 163
e 74 168
e 74 191
e 75 91
e 75 101
e 75 106
e 75 109
e 75 134
e 75 136
e 75 139
e 75 141
e 75 164
e 75 181
e 75 184
e 75 188
e 75 193
e 75 196
e 75 200
e 76 92
e 76 101
e 76 106
e 76 114
e 76 120
e 76 126
e 76 135
e 76 141
e 76 145
e 76 146
e 76 152
e 76 157
e 76 163
e 76 166
e 76 176
e 76 183
e 76 184
e 76 185
e 77 84
e 77 86
e 77 87
e 77 109
e 77 119
e 77 121
e 77 122
e 77 127
e 77 129
e 77 132
e 77 135
e 77 154
e 77 170
e 77 193
e 77 196
e 78 103
e 78 104
e 78 109
e 78 110
e 78 118
e 78 131
e 78 139
e 78 160
e 78 170
e 78 171
e 78 172
e 79 82
e 79 85
e 79 97
e 79 109
e 79 111
e 79 122
e 79 145
e 79 164
e 79 185
e 79 195
e 80 98
e 80 113
e 80 117
e 80 138
e 80 143
e 80 175
e 80 187
e 80 189
e 80 191
e 80 192
e 80 195
e 80 197
e 81 84
e 81 93
e 81 112
e 81 131
e 81 133
e 81 137
e 81 138
e 81 139
e 81 143
e 81 146
e 81 148
e 81 150
e 81 151
e 81 153
e 81 160
e 81 161
e 81 165
e 81 184
e 81 185
e 81 190
e 81 197
e 82 104
e 82 110
e 82 120
e 82 123
e 82 128
e 82 129
e 82 133
e 82 141
e 82 163
e 82 169
e 82 181
e 83 97
e 83 104
e 83 119
e 83 129
e 83 139
e 83 142
e 83 174
e 83 179
e 83 189
e 83 196
e 83 197
e 84 86
e 84 105
e 84 108
e 84 110
e 84 130
e 84 169
e 85 93
e 85 117
e 85 128
e 85 138
e 85 139
e 85 140
e 85 146
e 85 151
e 85 153
e 85 166
e 85 167
e 85 171
e 85 177
e 85 189
e 85 196
e 86 88
e 86 91
e 86 101
e 86 104
e 86 107
e 86 137
e 86 151
e 86 154
e 86 155
e 86 164
e 86 166
e 86 179
e 87 88
e 87 89
e 87 101
e 87 108
e 87 135
e 87 148
e 87 155
e 87 159
e 87 161
e 87 162
e 87 166
e 87 171
e 87 174
e 87 177
e 87 181
e 87 185
e 87 186
e 87 189
e 88 100
e 88 102
e 88 106
e 88 112
e 88 119
e 88 120
e 88 123
e 88 128
e 88 130
e 88 135
e 88 141
e 88 167
e 88 172
e 88 185
e 88 190
e 89 94
e 89 113
e 89 115
e 89 128
e 89 130
e 89 140
e 89 142
e 89 143
e 89 155
e 89 165
e 89 166
e 89 172
e 89 174
e 89 176
e 89 184
e 89 185
e 89 191
e 90 93
e 90 95
e 90 102
e 90 111
e 90 116
e 90 118
e 90 142
e 90 173
e 90 176
e 90 181
e 91 103
e 91 107
e 91 114
e 91 119
e 91 123
e 91 129
e 91 135
e 91 139
e 91 140
e 91 144
e 91 160
e 91 170
e 91 174
e 91 175
e 91 187
e 91 191
e 91 198
e 92 118
e 92 123
e 92 146
e 92 178
e 92 189
e 93 99
e 93 101
e 93 102
e 93 109
e 93 120
e 93 122
e 93 127
e 93 154
e 93 176
e 93 196
e 94 97
e 94 110
e 94 118
e 94 124
e 94 128
e 94 132
e 94 138
e 94 145
e 94 167
e 94 172
e 94 186
e 95 98
e 95 111
e 95 131
e 95 142
e 95 158
e 95 161
e 95 171
e 95 176
e 95 180
e 95 184
e 96 105
e 96 114
e 96 116
e 96 125
e 96 151
e 96 153
e 96 158
e 96 176
e 96 178
e 97 99
e 97 129
e 97 135
e 97 141
e 97 146
e 97 150
e 97 163
e 97 164
e 97 185
e 97 193
e 98 112
e 98 114
e 98 126
e 98 131
e 98 133
e 98 136
e 98 153
e 98 166
e 98 169
e 98 193
e 99 115
e 99 116
e 99 122
e 99 133
e 99 155
e 99 160
e 99 184
e 99 194
e 100 106
e 100 129
e 100 131
e 100 144
e 100 145
e 100 146
e 100 158
e 100 163
e 100 169
e 100 176
e 100 184
e 100 185
e 101 114
e 101 120
e 101 123
e 101 129
e 101 141
e 101 143
e 101 145
e 101 153
e 101 168
e 101 176
e 101 181
e 101 183
e 101 192
e 101 193
e 102 107
e 102 108
e 102 123
e 102 129
e 102 136
e 102 142
e 102 169
e 102 196
e 102 199
e 103 106
e 103 138
e 103 140
e 103 144
e 103 151
e 103 155
e 103 161
e 104 105
e 104 114
e 104 119
e 104 121
e 104 143
e 104 155
e 104 158
e 104 168
e 104 181
e 104 185
e 104 193
e 104 200
e 105 111
e 105 114
e 105 117
e 105 122
e 105 131
e 105 132
e 105 138
e 105 141
e 105 158
e 105 160
e 105 164
e 105 178
e 105 182
e 105 186
e 106 122
e 106 126
e 106 130
e 106 131
e 106 142
e 106 161
e 106 173
e 106 186
e 106 190
e 107 114
e 107 120
e 107 139
e 107 142
e 107 149
e 107 153
e 107 157
e 107 178
e 107 189
e 107 193
e 108 111
e 108 120
e 108 155
e 108 165
e 108 191
e 109 111
e 109 114
e 109 115
e 109 125
e 109 144
e 109 164
e 109 193
e 110 136
e 110 137
e 110 140
e 110 142
e 110 153
e 110 167
e 110 180
e 110 184
e 110 187
e 110 189
e 110 192
e 111 127
e 111 133
e 111 143
e 111 154
e 111 155
e 111 166
e 111 174
e 111 180
e 111 185
e 111 188
e 111 192
e 112 150
e 112 162
e 112 163
e 112 164
e 112 165
e 112 168
e 112 174
e 112 179
e 112 180
e 112 181
e 112 189
e 112 194
e 112 195
e 113 143
e 113 163
e 113 178
e 114 117
e 114 118
e 114 121
e 114 126
e 114 128
e 114 131
e 114 134
e 114 148
e 114 153
e 114 167
e 114 177
e 114 194
e 114 199
e 115 123
e 115 132
e 115 134
e 115 154
e 115 160
e 115 163
e 115 166
e 115 179
e 115 198
e 116 143
e 116 153
e 116 154
e 116 155
e 116 158
e 116 162
e 116 163
e 116 165
e 116 173
e 116 193
e 116 195
e 117 123
e 117 127
e 117 139
e 117 146
e 117 184
e 117 193
e 117 199
e 118 127
e 118 131
e 118 132
e 118 151
e 118 153
e 118 158
e 118 162
e 118 163
e 118 187
e 118 191
e 118 195
e 119 128
e 119 139
e 119 149
e 119 150
e 119 152
e 119 156
e 119 165
e 119 196
e 119 198
e 120 124
e 120 131
e 120 135
e 120 142
e 120 148
e 120 151
e 120 168
e 120 173
e 120 176
e 120 177
e 120 178
e 120 181
e 120 186
e 120 196
e 121 132
e 121 139
e 121 147
e 121 169
e 121 180
e 121 184
e 121 185
e 121 195
e 122 124
e 122 130
e 122 132
e 122 137
e 122 148
e 122 152
e 122 193
e 122 198
e 122 200
e 123 126
e 123 128
e 123 136
e 123 156
e 123 168
e 123 176
e 123 189
e 123 198
e 124 147
e 124 153
e 124 156
e 124 165
e 125 142
e 125 149
e 125 152
e 125 165
e 125 167
e 125 171
e 125 175
e 125 190
e 125 194
e 126 130
e 126 131
e 126 136
e 126 150
e 126 155
e 126 167
e 126 170
e 126 182
e 126 187
e 126 192
e 126 195
e 127 132
e 127 150
e 127 164
e 127 174
e 127 178
e 128 133
e 128 142
e 128 151
e 128 159
e 128 171
e 128 173
e 128 176
e 128 180
e 128 187
e 128 195
e 129 152
e 129 153
e 129 155
e 129 177
e 129 182
e 129 188
e 129 193
e 129 195
e 129 198
e 129 199
e 130 139
e 130 148
e 130 160
e 130 168
e 130 174
e 130 175
e 130 184
e 130 188
e 130 193
e 130 197
e 131 136
e 131 155
e 131 173
e 131 174
e 131 177
e 131 186
e 131 197
e 132 140
e 132 146
e 132 148
e 132 158
e 132 162
e 132 163
e 132 171
e 132 186
e 133 141
e 133 142
e 133 175
e 133 191
e 134 138
e 134 142
e 134 148
e 134 171
e 134 184
e 135 139
e 135 155
e 135 160
e 135 168
e 135 169
e 135 172
e 135 185
e 135 186
e 135 197
e 136 145
e 136 151
e 136 157
e 136 165
e 136 169
e 136 184
e 136 190
e 136 193
e 137 145
e 137 162
e 137 170
e 137 175
e 137 178
e 138 143
e 138 173
e 138 176
e 138 179
e 138 195
e 139 174
e 139 177
e 139 180
e 139 185
e 140 152
e 140 153
e 140 158
e 140 165
e 140 166
e 140 167
e 140 176
e 140 182
e 140 194
e 140 196
e 140 197
e 141 149
e 141 155
e 141 167
e 141 173
e 141 183
e 141 187
e 141 196
e 141 200
e 142 150
e 142 159
e 142 186
e 142 189
e 142 192
e 143 156
e 143 158
e 143 160
e 143 169
e 143 184
e 143 186
e 143 188
e 143 197
e 144 153
e 144 160
e 144 171
e 144 175
e 144 177
e 145 149
e 145 151
e 145 155
e 145 174
e 145 175
e 145 190
e 145 193
e 146 159
e 146 168
e 146 190
e 147 151
e 147 152
e 147 187
e 148 149
e 148 162
e 148 179
e 148 191
e 149 153
e 149 156
e 149 158
e 149 173
e 149 176
e 149 185
e 149 187
e 149 200
e 150 161
e 150 162
e 150 166
e 150 172
e 150 175
e 150 186
e 150 188
e 150 196
e 151 154
e 151 158
e 151 159
e 151 166
e 151 168
e 151 176
e 152 164
e 152 174
e 152 181
e 152 195
e 152 197
e 153 169
e 153 190
e 154 160
e 154 168
e 154 175
e 154 176
e 155 156
e 155 157
e 155 161
e 155 171
e 155 176
e 155 187
e 155 197
e 155 199
e 156 159
e 156 172
e 156 178
e 156 184
e 156 185
e 156 187
e 156 194
e 156 198
e 157 158
e 157 180
e 157 188
e 158 177
e 158 179
e 158 180
e 158 184
e 158 200
e 159 188
e 159 190
e 159 191
e 160 164
e 160 165
e 160 166
e 160 168
e 160 174
e 160 181
e 160 182
e 160 185
e 160 187
e 161 164
e 161 168
e 161 169
e 162 181
e 162 184
e 162 188
e 162 190
e 163 171
e 163 173
e 163 175
e 163 177
e 164 168
e 164 176
e 165 181
e 165 183
e 166 167
e 166 171
e 166 173
e 167 181
e 167 189
e 167 190
e 168 176
e 168 180
e 168 197
e 168 198
e 169 191
e 169 195
e 169 198
e 169 200
e 170 171
e 170 195
e 171 183
e 171 187
e 171 192
e 171 193
e 171 195
e 172 183
e 174 175
e 174 184
e 174 186
e 174 198
e 175 184
e 175 190
e 175 192
e 175 195
e 175 198
e 177 187
e 177 194
e 177 196
e 177 199
e 178 182
e 178 186
e 179 200
e 180 188
e 181 184
e 181 189
e 181 190
e 181 198
e 181 200
e 182 191
e 183 195
e 184 185
e 184 190
e 185 187
e 186 195
e 187 189
e 187 193
e 187 195
e 187 196
e 191 194
e 191 197
e 191 200
e 194 197
e 194 198
e 196 200
